min 132 217 160 58 132 290 201 79 217 290 113 303 164 201 113 196 58 79 30 196
1 1 1 1 0 0 0 0 0 0 0 0 0 0 0 0 0 0 0 0 = 1
0 0 0 0 1 1 1 1 0 0 0 0 0 0 0 0 0 0 0 0 = 1
0 0 0 0 0 0 0 0 1 1 1 1 0 0 0 0 0 0 0 0 = 1
0 0 0 0 0 0 0 0 0 0 0 0 1 1 1 1 0 0 0 0 = 1
0 0 0 0 0 0 0 0 0 0 0 0 0 0 0 0 1 1 1 1 = 1
0 0 0 0 1 0 0 0 1 0 0 0 1 0 0 0 1 0 0 0 = 1
1 0 0 0 0 0 0 0 0 1 0 0 0 1 0 0 0 1 0 0 = 1
0 1 0 0 0 1 0 0 0 0 0 0 0 0 1 0 0 0 1 0 = 1
0 0 1 0 0 0 1 0 0 0 1 0 0 0 0 0 0 0 0 1 = 1
0 0 0 1 0 0 0 1 0 0 0 1 0 0 0 1 0 0 0 0 = 1